units lj
atom_style atomic
boundary p p p
timestep 0.001

read_data bubble.atoms

mass 1 1.0

pair_style lj/cut 2.5
pair_coeff 1 1 1.0 1.0 2.5

fix 1 all nvt temp 0.7 0.7 1
dump id all atom 100 bubble.lammpstrj
thermo 1000
run 20000
